swarm_exploration/utils/lkh_mtsp_solver/resource/amtsp3_1.atsp
NAME : pairopt
TYPE : ACVRP
DIMENSION : 6
EDGE_WEIGHT_TYPE : EXPLICIT
EDGE_WEIGHT_FORMAT : FULL_MATRIX
CAPACITY : 1202
VEHICLES : 2
EDGE_WEIGHT_SECTION
100000 -100000 -100000 100000 100000 100000 
100000 100000 1000000 2193 600 2174 
100000 1000000 100000 1112 2151 915 
0 0 0 100000 2364 205 
0 0 0 2364 100000 2254 
0 0 0 205 2254 100000 
DEMAND_SECTION
1 0
2 0
3 0
4 765
5 348
6 490
DEPOT_SECTION
1
EOF