swarm_exploration/utils/lkh_mtsp_solver/resource/amtsp3_1.tour
NAME : pairopt.-196121.tour
COMMENT : Length = -196121
COMMENT : Found by LKH-3 [Keld Helsgaun] Mon Jun 12 16:34:59 2023
TYPE : TOUR
DIMENSION : 7
TOUR_SECTION
1
2
5
4
7
3
6
-1
EOF
